Traveling Salesman Problem/TSP_generados/Aleatorio1621103388_13.tsp
NAME: Aleatorio1621103388_13.tsp
COMMENT: Randomly generated scenario
TYPE: TSP
DIMENSION: 13
EDGE_WEIGHT_TYPE: ATT
NODE_COORD_SECTION
1 42.55 15.39
2 36.75 4.33
3 26.17 3.81
4 9.74 26.57
5 21.52 25.86
6 29.64 28.55
7 1.71 32.7
8 38.12 13.8
9 43.01 15.08
10 13.35 45.05
11 25.3 4.96
12 7.47 21.81
13 10.19 2.27
