Traveling Salesman Problem/TSP_generados/Aleatorio1621103388_13.opt.tour
NAME: Aleatorio1621103388_13.opt.tour
COMMENT: Optimal solution for Aleatorio1621103388_13 (142.48153251165073)
TYPE: TOUR
DIMENSION: 13
TOUR_SECTION
1 6 5 10 7 4 12 13 11 3 2 8 9
-1
EOF
